(set-info :smt-lib-version 2.6)
(set-logic QF_LIA)
(set-info :category "industrial")
(set-info :status sat)
(declare-fun x0 () Int)
(declare-fun x1 () Int)
(declare-fun x10 () Int)
(declare-fun x11 () Int)
(declare-fun x12 () Int)
(declare-fun x13 () Int)
(declare-fun x14 () Int)
(declare-fun x15 () Int)
(declare-fun x16 () Int)
(declare-fun x17 () Int)
(declare-fun x18 () Int)
(declare-fun x19 () Int)
(declare-fun x2 () Int)
(declare-fun x20 () Int)
(declare-fun x21 () Int)
(declare-fun x22 () Int)
(declare-fun x23 () Int)
(declare-fun x24 () Int)
(declare-fun x25 () Int)
(declare-fun x26 () Int)
(declare-fun x27 () Int)
(declare-fun x28 () Int)
(declare-fun x29 () Int)
(declare-fun x3 () Int)
(declare-fun x30 () Int)
(declare-fun x31 () Int)
(declare-fun x32 () Int)
(declare-fun x33 () Int)
(declare-fun x34 () Int)
(declare-fun x4 () Int)
(declare-fun x5 () Int)
(declare-fun x6 () Int)
(declare-fun x7 () Int)
(declare-fun x8 () Int)
(declare-fun x9 () Int)
(assert (let ((?v_0 (* 0 x10)) (?v_8 (* 0 x11)) (?v_46 (* 0 x12)) (?v_2 (* 1 x0)) (?v_57 (* 1 x17)) (?v_19 (* 0 x19)) (?v_10 (* 0 x21)) (?v_12 (* 1 x26)) (?v_6 (* 0 x27)) (?v_7 (* 0 x31)) (?v_14 (* 0 x34)) (?v_15 (* 0 x8)) (?v_52 (* 0 x9)) (?v_5 (* 1 x2)) (?v_31 (* 1 x32)) (?v_71 (* 1 x33)) (?v_47 (* 1 x1)) (?v_9 (* 1 x14)) (?v_50 (* 0 x20)) (?v_58 (* 1 x19)) (?v_30 (* 0 x22)) (?v_21 (* 0 x26)) (?v_23 (* 0 x28)) (?v_13 (* 0 x29)) (?v_17 (* 0 x30)) (?v_36 (* 0 x32)) (?v_26 (* 1 x5)) (?v_24 (* 0 x7)) (?v_16 (* 1 x9)) (?v_62 (* 1 x10)) (?v_53 (* 0 x18)) (?v_25 (* 1 x3)) (?v_33 (* 1 x6)) (?v_27 (* 2 x24)) (?v_87 (* 1 x12)) (?v_49 (* 1 x18)) (?v_77 (* 1 x20)) (?v_32 (* 0 x4)) (?v_37 (* 1 x22)) (?v_65 (* 1 x23)) (?v_74 (* 1 x13)) (?v_42 (* 0 x17)) (?v_43 (* 0 x23)) (?v_51 (* 1 x25)) (?v_85 (* 0 x33)) (?v_67 (* 1 x7)) (?v_61 (* 0 x0)) (?v_38 (* 0 x14)) (?v_44 (* 0 x24)) (?v_45 (* 0 x25)) (?v_80 (* 1 x29)) (?v_94 (* 0 x13)) (?v_56 (* 1 x11)) (?v_64 (* 0 x15)) (?v_81 (* 1 x31)) (?v_66 (* 1 x34)) (?v_92 (* 1 x4)) (?v_89 (* 0 x6)) (?v_59 (* 0 x2)) (?v_101 (* 2 x29)) (?v_84 (* 0 x3)) (?v_70 (* 2 x28)) (?v_73 (* 0 x1)) (?v_88 (* 0 x16)) (?v_79 (* 1 x27)) (?v_78 (* 0 x5)) (?v_90 (* 1 x8)) (?v_106 (* 1 x21)) (?v_100 (* 1 x16)) (?v_95 (* 2 x33)) (?v_103 (* 1 x24)) (?v_99 (* 1 x15)) (?v_108 (* 2 x2)) (?v_109 (* 1 x28)) (?v_110 (* 1 x30)) (?v_1 (* (- 1) x13)) (?v_18 (* (- 1) x14)) (?v_3 (* (- 1) x15)) (?v_4 (* (- 1) x18)) (?v_11 (* (- 1) x25)) (?v_28 (* (- 1) x12)) (?v_39 (* (- 1) x16)) (?v_40 (* (- 1) x21)) (?v_22 (* (- 1) x34)) (?v_55 (* (- 1) x4)) (?v_29 (* (- 1) x8)) (?v_72 (* (- 1) x0)) (?v_20 (* (- 1) x2)) (?v_76 (* (- 1) x23)) (?v_105 (* (- 1) x32)) (?v_34 (* (- 1) x1)) (?v_41 (* (- 1) x27)) (?v_35 (* (- 1) x10)) (?v_83 (* (- 1) x24)) (?v_48 (* (- 1) x28)) (?v_68 (* (- 1) x31)) (?v_60 (* (- 1) x30)) (?v_97 (* (- 1) x29)) (?v_54 (* (- 1) x7)) (?v_69 (* (- 1) x9)) (?v_102 (* (- 1) x6)) (?v_63 (* (- 1) x20)) (?v_112 (* (- 2) x23)) (?v_75 (* (- 2) x14)) (?v_96 (* (- 2) x31)) (?v_82 (* (- 1) x19)) (?v_111 (* (- 1) x33)) (?v_86 (* (- 1) x3)) (?v_91 (* (- 1) x11)) (?v_104 (* (- 1) x5)) (?v_93 (* (- 1) x17)) (?v_98 (* (- 1) x26)) (?v_107 (* (- 1) x22))) (and (<= (+ ?v_0 (+ ?v_8 (+ ?v_1 (+ ?v_46 (+ ?v_2 (+ (* 2 x1) (+ ?v_18 (+ ?v_3 (+ ?v_57 (+ ?v_4 (+ ?v_19 (+ ?v_11 (+ ?v_10 (+ ?v_12 (+ ?v_6 (+ ?v_7 (+ ?v_14 (+ ?v_15 (+ ?v_52 (+ ?v_5 (+ ?v_31 ?v_71))))))))))))))))))))) 0) (<= (+ ?v_0 (+ ?v_28 (+ ?v_1 (+ ?v_2 (+ ?v_47 (+ ?v_9 (+ ?v_3 (+ ?v_39 (+ ?v_4 (+ ?v_50 (+ ?v_58 (+ ?v_40 (+ ?v_22 (+ ?v_55 (+ ?v_29 (+ ?v_5 (+ ?v_30 (+ ?v_21 (+ ?v_6 (+ ?v_23 (+ ?v_13 (+ ?v_17 (+ ?v_7 (+ ?v_36 (+ ?v_26 (+ ?v_24 ?v_16)))))))))))))))))))))))))) 1) (<= (+ (* (- 2) x12) (+ ?v_72 (+ ?v_62 (+ ?v_8 (+ ?v_9 (+ ?v_3 (+ ?v_53 (+ ?v_20 (+ ?v_10 (+ ?v_76 (+ ?v_11 (+ ?v_12 (+ ?v_6 (+ ?v_13 (+ ?v_25 (+ ?v_105 (+ ?v_14 (+ ?v_15 (+ ?v_33 (+ ?v_16 (+ ?v_27 ?v_17))))))))))))))))))))) 0) (<= (+ ?v_34 (+ ?v_0 (+ ?v_2 (+ ?v_87 (+ ?v_18 (+ ?v_3 (+ ?v_19 (+ ?v_49 (+ ?v_20 (+ ?v_77 (+ ?v_10 (+ ?v_21 (+ ?v_41 (+ ?v_22 (+ ?v_23 (+ ?v_7 (+ ?v_32 (+ ?v_24 (+ ?v_15 (+ ?v_37 (+ ?v_65 (+ ?v_25 (+ ?v_26 ?v_27))))))))))))))))))))))) (- 1)) (<= (+ ?v_35 (+ ?v_8 (+ ?v_28 (+ ?v_74 (+ ?v_3 (+ ?v_42 (+ ?v_43 (+ ?v_83 (+ ?v_48 (+ ?v_29 (+ ?v_30 (+ ?v_21 (+ ?v_13 (+ ?v_7 (+ ?v_14 (+ ?v_51 (+ ?v_25 (+ ?v_31 (+ ?v_85 (+ ?v_32 (+ ?v_33 ?v_67))))))))))))))))))))) (- 1)) (<= (+ ?v_34 (+ ?v_35 (+ ?v_61 (+ ?v_8 (+ (* (- 5) x9) (+ ?v_38 (+ ?v_3 (+ ?v_4 (+ ?v_68 (+ ?v_10 (+ ?v_44 (+ ?v_45 (+ ?v_6 (+ ?v_36 (+ ?v_14 (+ ?v_15 (+ ?v_37 (+ ?v_80 (+ ?v_25 (+ ?v_60 ?v_33)))))))))))))))))))) 1) (<= (+ ?v_94 (+ ?v_2 (+ ?v_56 (+ ?v_38 (+ ?v_39 (+ ?v_20 (+ ?v_40 (+ ?v_41 (+ ?v_97 (+ ?v_54 (+ ?v_69 (+ ?v_64 (+ ?v_42 (+ ?v_19 (+ ?v_43 (+ ?v_44 (+ ?v_45 (+ ?v_12 (+ ?v_81 (+ ?v_31 (+ ?v_66 (+ ?v_92 (+ ?v_89 ?v_37))))))))))))))))))))))) 0) (<= (+ ?v_0 (+ ?v_8 (+ ?v_46 (+ ?v_47 (+ ?v_18 (+ ?v_39 (+ ?v_48 (+ ?v_29 (+ ?v_49 (+ ?v_59 (+ ?v_50 (+ ?v_10 (+ ?v_43 (+ ?v_7 (+ ?v_51 (+ ?v_101 (+ ?v_25 (+ ?v_36 (+ ?v_14 (+ ?v_32 (+ ?v_102 (+ ?v_17 ?v_52)))))))))))))))))))))) 0) (<= (+ ?v_63 (+ ?v_0 (+ ?v_53 (+ ?v_112 (+ ?v_11 (+ ?v_54 (+ ?v_84 (+ ?v_14 (+ ?v_55 (+ ?v_15 (+ ?v_2 (+ ?v_56 (+ (* 3 x1) (+ ?v_38 (+ ?v_57 (+ ?v_58 (+ ?v_59 (+ ?v_12 (+ ?v_70 (+ ?v_60 ?v_16)))))))))))))))))))) 1) (<= (+ ?v_61 (+ ?v_73 (+ ?v_62 (+ ?v_75 (+ ?v_96 (+ ?v_4 (+ ?v_82 (+ ?v_20 (+ ?v_63 (+ ?v_111 (+ ?v_64 (+ ?v_88 (+ ?v_10 (+ ?v_30 (+ ?v_23 (+ ?v_13 (+ ?v_32 (+ ?v_15 (+ ?v_65 (+ ?v_79 (+ ?v_66 (+ ?v_67 (+ ?v_52 ?v_33))))))))))))))))))))))) 0) (<= (+ ?v_86 (+ ?v_68 (+ ?v_22 (+ ?v_61 (+ ?v_0 (+ ?v_21 (+ ?v_78 (+ ?v_24 (+ ?v_56 (+ ?v_69 (+ ?v_9 (+ ?v_64 (+ ?v_58 (+ ?v_44 (+ ?v_6 (+ ?v_37 (+ ?v_70 (+ ?v_17 (+ ?v_31 (+ ?v_71 ?v_90)))))))))))))))))))) 0) (<= (+ ?v_72 (+ ?v_73 (+ ?v_56 (+ ?v_46 (+ ?v_74 (+ ?v_75 (+ ?v_4 (+ ?v_76 (+ ?v_55 (+ ?v_29 (+ ?v_69 (+ ?v_64 (+ ?v_77 (+ ?v_78 (+ ?v_106 (+ ?v_79 (+ ?v_80 (+ ?v_81 (+ ?v_66 (+ ?v_67 (+ (* 2 x3) ?v_33))))))))))))))))))))) 1) (<= (+ ?v_91 (+ ?v_82 (+ ?v_104 (+ ?v_61 (+ ?v_73 (+ ?v_62 (+ ?v_46 (+ ?v_9 (+ ?v_64 (+ ?v_10 (+ ?v_45 (+ ?v_6 (+ ?v_14 (+ ?v_24 (+ ?v_52 (+ ?v_100 (+ ?v_80 (+ ?v_25 (+ (* (- 2) x30) (+ ?v_81 (+ ?v_95 (* 2 x4)))))))))))))))))))))) (- 1)) (<= (+ ?v_72 (+ ?v_8 (+ ?v_47 (+ ?v_62 (+ ?v_38 (+ ?v_39 (+ ?v_93 (+ ?v_63 (+ ?v_83 (+ ?v_55 (+ ?v_64 (+ ?v_45 (+ ?v_23 (+ ?v_84 (+ ?v_49 (+ ?v_58 (+ ?v_80 (+ ?v_60 (+ ?v_85 (+ ?v_14 (+ ?v_26 ?v_52))))))))))))))))))))) 0) (<= (+ (* (- 2) x29) (+ ?v_72 (+ ?v_82 (+ ?v_86 (+ ?v_22 (+ ?v_73 (+ ?v_8 (+ ?v_87 (+ ?v_69 (+ ?v_9 (+ ?v_64 (+ ?v_88 (+ ?v_50 (+ ?v_49 (+ ?v_5 (+ ?v_30 (+ ?v_44 (+ ?v_6 (+ ?v_60 (+ ?v_24 (+ ?v_81 ?v_33))))))))))))))))))))) 1) (<= (+ ?v_0 (+ ?v_56 (+ ?v_1 (+ ?v_46 (+ (* (- 2) x18) (+ ?v_19 (+ ?v_40 (+ ?v_22 (+ ?v_2 (+ ?v_69 (+ ?v_88 (+ ?v_30 (+ ?v_43 (+ ?v_21 (+ ?v_6 (+ ?v_23 (+ ?v_25 (+ ?v_85 (+ ?v_32 (+ ?v_78 (+ ?v_89 (+ ?v_103 ?v_90)))))))))))))))))))))) 0) (<= (+ ?v_91 (+ ?v_40 (+ ?v_98 (+ ?v_61 (+ ?v_46 (+ ?v_47 (+ ?v_9 (+ (* (- 2) x6) (+ ?v_107 (+ ?v_83 (+ ?v_88 (+ ?v_59 (+ ?v_50 (+ ?v_6 (+ ?v_23 (+ ?v_78 (+ ?v_52 (+ ?v_99 (+ ?v_49 (+ ?v_80 (+ ?v_31 (+ ?v_71 (+ ?v_66 ?v_92))))))))))))))))))))))) 1) (<= (+ ?v_93 (+ ?v_29 (+ ?v_61 (+ ?v_46 (+ ?v_94 (+ (* (- 3) x22) (+ ?v_88 (+ ?v_49 (+ ?v_58 (+ ?v_43 (+ ?v_45 (+ ?v_6 (+ ?v_80 (+ ?v_108 (+ ?v_60 (+ ?v_81 (+ ?v_32 (+ ?v_78 (+ ?v_31 (+ ?v_67 (+ ?v_95 ?v_89))))))))))))))))))))) 0) (<= (+ ?v_96 (+ ?v_34 (+ ?v_97 (+ ?v_0 (+ ?v_56 (+ ?v_74 (+ (* (- 2) x21) (+ ?v_20 (+ ?v_41 (+ ?v_38 (+ ?v_19 (+ ?v_50 (+ ?v_21 (+ ?v_49 (+ ?v_30 (+ ?v_25 (+ ?v_60 (+ ?v_89 (+ ?v_90 ?v_16))))))))))))))))))) 0) (<= (+ ?v_72 (+ ?v_93 (+ ?v_98 (+ ?v_22 (+ ?v_54 (+ ?v_74 (+ ?v_19 (+ ?v_43 (+ ?v_45 (+ ?v_6 (+ (* (- 2) x32) (+ ?v_44 (+ ?v_32 (+ ?v_15 (+ ?v_99 (+ ?v_100 (+ ?v_49 (+ ?v_5 (+ (* 2 x20) (+ ?v_101 ?v_71)))))))))))))))))))) 0) (<= (+ ?v_34 (+ ?v_35 (+ ?v_42 (+ ?v_41 (+ ?v_29 (+ ?v_53 (+ ?v_19 (+ ?v_77 (+ ?v_45 (+ ?v_23 (+ ?v_84 (+ ?v_7 (+ ?v_32 (+ ?v_78 (+ ?v_69 (+ ?v_36 (+ ?v_85 (+ ?v_102 (+ ?v_99 (+ ?v_5 (+ ?v_103 ?v_17))))))))))))))))))))) (- 1)) (<= (+ ?v_72 (+ ?v_73 (+ ?v_0 (+ ?v_56 (+ ?v_39 (+ ?v_104 (+ ?v_57 (+ ?v_53 (+ ?v_58 (+ ?v_10 (+ ?v_105 (+ ?v_29 (+ ?v_59 (+ ?v_30 (+ ?v_44 (+ ?v_6 (+ ?v_84 (+ ?v_7 (+ ?v_89 (+ ?v_24 (+ ?v_99 (+ ?v_65 (+ ?v_109 ?v_17))))))))))))))))))))))) 0) (<= (+ ?v_93 (+ ?v_86 (+ ?v_61 (+ ?v_73 (+ ?v_62 (+ ?v_8 (+ ?v_88 (+ ?v_19 (+ ?v_59 (+ ?v_50 (+ ?v_51 (+ ?v_6 (+ ?v_23 (+ ?v_101 (+ ?v_7 (+ ?v_36 (+ ?v_52 (+ ?v_99 (+ ?v_106 (+ ?v_17 (+ ?v_33 (* 2 x7)))))))))))))))))))))) 1) (<= (+ ?v_96 (+ ?v_1 (+ ?v_46 (+ ?v_4 (+ ?v_50 (+ ?v_40 (+ ?v_61 (+ ?v_107 (+ ?v_11 (+ ?v_43 (+ ?v_13 (+ ?v_105 (+ ?v_102 (+ ?v_88 (+ ?v_24 (+ ?v_99 (+ ?v_108 (+ ?v_103 (+ ?v_12 (+ ?v_25 (+ ?v_17 (+ ?v_66 (+ ?v_26 (* 2 x9)))))))))))))))))))))))) 1) (<= (+ (* (- 2) x26) (+ ?v_91 (+ ?v_82 (+ ?v_63 (+ ?v_11 (+ ?v_61 (+ ?v_73 (+ ?v_87 (+ ?v_74 (+ ?v_53 (+ ?v_30 (+ ?v_44 (+ ?v_13 (+ ?v_78 (+ ?v_89 (+ ?v_99 (+ ?v_5 (+ ?v_106 (+ ?v_109 (+ ?v_110 (+ ?v_66 ?v_90))))))))))))))))))))) 0) (<= (+ ?v_0 (+ (* (- 2) x11) (+ (* (- 2) x8) (+ ?v_28 (+ ?v_61 (+ ?v_20 (+ ?v_76 (+ ?v_41 (+ ?v_88 (+ ?v_19 (+ (* 2 x26) (+ ?v_23 (+ ?v_7 (+ ?v_36 (+ ?v_14 (+ ?v_89 (+ ?v_24 (+ ?v_52 (+ ?v_99 (+ ?v_103 (+ ?v_25 ?v_110))))))))))))))))))))) 0) (<= (+ ?v_72 (+ ?v_73 (+ ?v_46 (+ ?v_94 (+ ?v_18 (+ ?v_19 (+ ?v_10 (+ ?v_49 (+ ?v_76 (+ ?v_45 (+ ?v_6 (+ ?v_23 (+ ?v_36 (+ ?v_111 (+ ?v_30 (+ ?v_32 (+ ?v_89 (+ ?v_52 (+ ?v_99 (+ ?v_100 (+ ?v_5 (+ ?v_103 ?v_60)))))))))))))))))))))) (- 1)) (<= (+ ?v_91 (+ ?v_61 (+ ?v_0 (+ ?v_46 (+ ?v_94 (+ ?v_38 (+ ?v_50 (+ ?v_21 (+ ?v_23 (+ ?v_13 (+ ?v_78 (+ ?v_25 (+ ?v_32 (+ ?v_102 (+ ?v_69 (+ ?v_44 (+ ?v_15 (+ ?v_100 (+ ?v_5 (+ ?v_60 ?v_71)))))))))))))))))))) (- 1)) (<= (+ ?v_63 (+ (* (- 2) x4) (+ ?v_73 (+ ?v_0 (+ ?v_8 (+ ?v_46 (+ ?v_94 (+ ?v_19 (+ ?v_112 (+ ?v_21 (+ ?v_41 (+ ?v_54 (+ ?v_59 (+ ?v_44 (+ ?v_84 (+ ?v_7 (+ ?v_36 (+ ?v_85 (+ ?v_52 (+ ?v_100 (+ ?v_49 (+ ?v_109 (+ ?v_60 (+ ?v_66 ?v_33)))))))))))))))))))))))) 0) (<= (+ (* (- 2) x0) (+ (* (- 2) x1) (+ ?v_56 (+ ?v_1 (+ ?v_46 (+ ?v_18 (+ ?v_42 (+ ?v_23 (+ ?v_80 (+ ?v_7 (+ ?v_36 (+ ?v_85 (+ ?v_52 (+ ?v_103 (+ ?v_110 (+ ?v_92 (+ ?v_26 ?v_33))))))))))))))))) (- 1)))))
(check-sat)
(exit)
